p cnf 7230 16
-1714 2273 0
2280 2281 0
1722 -2281 0
-1722 -2280 0
2278 2279 0
1720 -2279 0
-1720 -2278 0
2276 2277 0
1718 -2277 0
-1718 -2276 0
2274 2275 0
1716 -2275 0
-1716 -2274 0
1724 -2283 0
-2272 -2273 0
2272 2273 0
